Academic license - for non-commercial use only - expires 2022-11-10
Using license file /home/benedond/Apps/gurobi/gurobi950/gurobi.lic
Using gurobi.env file
Set parameter Threads to value 1
Changed value of parameter TimeLimit to 1200.0
   Prev: inf  Min: 0.0  Max: inf  Default: inf
Gurobi Optimizer version 9.1.2 build v9.1.2rc0 (linux64)
Thread count: 2 physical cores, 4 logical processors, using up to 1 threads
Optimize a model with 301 rows, 250 columns and 1130 nonzeros
Model fingerprint: 0x5719f4a8
Variable types: 20 continuous, 230 integer (230 binary)
Coefficient statistics:
  Matrix range     [2e-01, 5e+02]
  Objective range  [5e-02, 1e+00]
  Bounds range     [1e+00, 1e+00]
  RHS range        [1e+00, 3e+02]
Found heuristic solution: objective 4.6635589
Presolve removed 140 rows and 68 columns
Presolve time: 0.01s
Presolved: 161 rows, 182 columns, 1043 nonzeros
Variable types: 18 continuous, 164 integer (164 binary)

Root relaxation: objective 3.203403e+00, 208 iterations, 0.00 seconds

    Nodes    |    Current Node    |     Objective Bounds      |     Work
 Expl Unexpl |  Obj  Depth IntInf | Incumbent    BestBd   Gap | It/Node Time

     0     0    3.20340    0   26    4.66356    3.20340  31.3%     -    0s
H    0     0                       4.0503235    3.20340  20.9%     -    0s
     0     0    3.29906    0   33    4.05032    3.29906  18.5%     -    0s
H    0     0                       3.6895294    3.29906  10.6%     -    0s
     0     0    3.34775    0   34    3.68953    3.34775  9.26%     -    0s
     0     0    3.37368    0   33    3.68953    3.37368  8.56%     -    0s
     0     0    3.40331    0   33    3.68953    3.40331  7.76%     -    0s
     0     0    3.40558    0   26    3.68953    3.40558  7.70%     -    0s
     0     0    3.40696    0   26    3.68953    3.40696  7.66%     -    0s
     0     0    3.40773    0   26    3.68953    3.40773  7.64%     -    0s
     0     0    3.40784    0   26    3.68953    3.40784  7.63%     -    0s
     0     0    3.40784    0   26    3.68953    3.40784  7.63%     -    0s
     0     0    3.43557    0   26    3.68953    3.43557  6.88%     -    0s
     0     0    3.43557    0   32    3.68953    3.43557  6.88%     -    0s
     0     0    3.43557    0   33    3.68953    3.43557  6.88%     -    0s
     0     0    3.43557    0   34    3.68953    3.43557  6.88%     -    0s
     0     0    3.43557    0   24    3.68953    3.43557  6.88%     -    0s
     0     0    3.43557    0   25    3.68953    3.43557  6.88%     -    0s
     0     0    3.43557    0   34    3.68953    3.43557  6.88%     -    0s
     0     0    3.43557    0   32    3.68953    3.43557  6.88%     -    0s
     0     0    3.43557    0   34    3.68953    3.43557  6.88%     -    0s
     0     0    3.43557    0   34    3.68953    3.43557  6.88%     -    0s
     0     0    3.43557    0   28    3.68953    3.43557  6.88%     -    0s
     0     0    3.43557    0   30    3.68953    3.43557  6.88%     -    0s
     0     0    3.43557    0   26    3.68953    3.43557  6.88%     -    0s
     0     0    3.43557    0   28    3.68953    3.43557  6.88%     -    0s
     0     0    3.43557    0   30    3.68953    3.43557  6.88%     -    0s
     0     0    3.43557    0   33    3.68953    3.43557  6.88%     -    0s
     0     0    3.43557    0   33    3.68953    3.43557  6.88%     -    0s
     0     0    3.43557    0   33    3.68953    3.43557  6.88%     -    0s
     0     0    3.43557    0   32    3.68953    3.43557  6.88%     -    0s
     0     0    3.43557    0   32    3.68953    3.43557  6.88%     -    0s
     0     0    3.43557    0   31    3.68953    3.43557  6.88%     -    0s
     0     0    3.43557    0   31    3.68953    3.43557  6.88%     -    0s
     0     0    3.44091    0   27    3.68953    3.44091  6.74%     -    0s
     0     0    3.44091    0   33    3.68953    3.44091  6.74%     -    0s
H    0     0                       3.6293529    3.44091  5.19%     -    0s
     0     0    3.44091    0   25    3.62935    3.44091  5.19%     -    0s
     0     0    3.44091    0   24    3.62935    3.44091  5.19%     -    0s
     0     0    3.44091    0   25    3.62935    3.44091  5.19%     -    0s
     0     0    3.44091    0   21    3.62935    3.44091  5.19%     -    0s
     0     0    3.44091    0   26    3.62935    3.44091  5.19%     -    0s
     0     0    3.44091    0   31    3.62935    3.44091  5.19%     -    0s
     0     0    3.44091    0   31    3.62935    3.44091  5.19%     -    0s
     0     0    3.44803    0   20    3.62935    3.44803  5.00%     -    0s
     0     0    3.44901    0   36    3.62935    3.44901  4.97%     -    0s
     0     0    3.44987    0   27    3.62935    3.44987  4.95%     -    0s
     0     0    3.44999    0   29    3.62935    3.44999  4.94%     -    0s
     0     0    3.45192    0   33    3.62935    3.45192  4.89%     -    0s
     0     0    3.45260    0   32    3.62935    3.45260  4.87%     -    0s
     0     0    3.45265    0   28    3.62935    3.45265  4.87%     -    0s
     0     0    3.45437    0   18    3.62935    3.45437  4.82%     -    0s
     0     0    3.45437    0   18    3.62935    3.45437  4.82%     -    0s
     0     0    3.45437    0   24    3.62935    3.45437  4.82%     -    0s
     0     0    3.45437    0   27    3.62935    3.45437  4.82%     -    0s
     0     0    3.45437    0   20    3.62935    3.45437  4.82%     -    0s
     0     0    3.45437    0   25    3.62935    3.45437  4.82%     -    0s
     0     0    3.45438    0   27    3.62935    3.45438  4.82%     -    0s
     0     0    3.45445    0   18    3.62935    3.45445  4.82%     -    0s
     0     0    3.45445    0   18    3.62935    3.45445  4.82%     -    0s
     0     2    3.45544    0   18    3.62935    3.45544  4.79%     -    0s
*   14     2               7       3.5252353    3.51392  0.32%  10.1    0s

Cutting planes:
  Cover: 1
  MIR: 7
  Mod-K: 1
  Relax-and-lift: 8

Explored 17 nodes (1461 simplex iterations) in 0.23 seconds
Thread count was 1 (of 4 available processors)

Solution count 5: 3.52524 3.62935 3.68953 ... 4.66356

Optimal solution found (tolerance 1.00e-04)
Best objective 3.525235306515e+00, best bound 3.525235306515e+00, gap 0.0000%
